
  22   10
  10   10   10   10   10   10   10   10   10   10

   0   0   0   0   0   0   0   0   0   0   0   4 2 4 7 21 
   1   0   0   0   0   0   0   0  10   0   0   2 12 3 
   6   0   0   0   0  10   0   0   0   0   0   3 13 10 5 
   1   0   0   0   0  10   0   0   0   0   0   3 20 10 8 
   4  10   0   0   0   0   0   0   0   0   0   1 6 
   5   0   0   0   0   0   0   0   0   0  10   2 15 9 
   6   0  10   0   0   0   0   0   0   0   0   3 20 13 12 
   2  10   0   0   0   0   0   0   0   0   0   2 14 13 
   6   0  10   0   0   0   0   0   0   0   0   1 11 
   1   0   0   0   0   0  10   0   0   0   0   1 11 
   3   0   0   0   0   0   0   0  10   0   0   2 19 14 
   6   0   0   0   0   0   0   0   0   0  10   2 19 14 
   3   0  10   0   0   0   0   0   0   0   0   2 19 16 
   2   0   0   0   0   0   0   0   0  10   0   1 16 
   4   0   0  10   0   0   0   0   0   0   0   2 20 19 
   6   0   0   0   0  10   0   0   0   0   0   1 17 
   2   0   0  10   0   0   0   0   0   0   0   1 18 
  10   0  10   0   0   0   0   0   0   0   0   1 22
   7   0   0   0  10   0   0   0   0   0   0   1 22
   1  10   0   0   0   0   0   0   0   0   0   1 22
  10   0   0   0   0  10   0   0   0   0   0   1 22
   0   0   0   0   0   0   0   0   0   0   0   0 
